c file = i-5-06-li.cnf (binate cover example from Li's 2004 PhD thesis)
c
c tcl command line and solution
c =============================
c % B.cover.f.exh ../xBenchm/coverBinate/tiny/i-5-06-li.cnf
c Hasse rank order of all solutions (feasible and unfeasible) 
c .. almost ready for plotting the Hasse graph 
c .. coord;value,isFeasible,cntNotCovered
c solutionAry(0) = {00000;60,0,6}
c solutionAry(1) = {10000;11,0,1} {01000;21,0,2} {00100;21,0,2} {00010;31,0,3} {00001;21,0,2}
c solutionAry(2) = {11000;2,1,0} {10100;22,0,2} {10010;22,0,2} {10001;12,0,1} {01100;12,0,1} {01010;32,0,3} {01001;12,0,1} {00110;2,1,0} {00101;22,0,2} {00011;22,0,2}
c solutionAry(3) = {11100;13,0,1} {11010;23,0,2} {11001;3,1,0} {10110;13,0,1} {10101;23,0,2} {10011;23,0,2} {01110;3,1,0} {01101;13,0,1} {01011;23,0,2} {00111;3,1,0}
c solutionAry(4) = {11110;14,0,1} {11101;14,0,1} {11011;24,0,2} {10111;14,0,1} {01111;4,1,0}
c solutionAry(5) = {11111;15,0,1}
c 
c # Output from B.cover.f.exh: 
c # Exhaustive enumeration of instance ../xBenchm/coverBinate/tiny/i-5-06-li.cnf 
c # .. completed on Tue Oct 14 21:42:12 EDT 2014 
c # table below can be read in R 
c rank	cntCoord	cntFeasible	probOfFeasible
c 0	1	0 	   0
c 1	5	0 	   0
c 2	10	2 	 0.2
c 3	10	3 	 0.3
c 4	5	1 	 0.2
c 5	1	0 	   0
c # there are 2 valueBest solutions
c # 00110;2
c # 11000;2
c
p cnf 5 6
    2     4      0
 1     3         0
 1     3     5   0
      -3  4      0
       3 -4      0
-1       -4      0
